DIMENSION: 12
EDGE_WEIGHT_TYPE: EXPLICIT
EDGE_WEIGHT_FORMAT: FULL_MATRIX
EDGE_WEIGHT_SECTION:
32767 80 32767 32767 32767 32767 57 32767 32767 32767 93 32767 
80 32767 11 32 32767 32767 32767 2 67 47 20 32767 
32767 11 32767 32767 32767 85 32767 3 44 94 32767 32767 
32767 32 32767 32767 32767 32767 32767 32767 46 32767 32767 32767 
32767 32767 32767 32767 32767 12 32767 32767 32767 32767 32767 94 
32767 32767 85 32767 12 32767 32767 38 32767 25 43 32767 
57 32767 32767 32767 32767 32767 32767 36 32767 32767 99 32767 
32767 2 3 32767 32767 38 36 32767 3 32767 32767 32767 
32767 67 44 46 32767 32767 32767 3 32767 5 15 32767 
32767 47 94 32767 32767 25 32767 32767 5 32767 32767 32767 
93 20 32767 32767 32767 43 99 32767 15 32767 32767 32767 
32767 32767 32767 32767 94 32767 32767 32767 32767 32767 32767 32767 
EOF